CPXPARAM_MIP_Tolerances_MIPGap                   0
Tried aggregator 1 time.
MIP Presolve eliminated 405 rows and 20 columns.
MIP Presolve modified 4195 coefficients.
Reduced MIP has 6819 rows, 3642 columns, and 20042 nonzeros.
Reduced MIP has 3257 binaries, 0 generals, 0 SOSs, and 0 indicators.
Presolve time = 0.03 sec. (14.42 ticks)
Found incumbent of value 75.000000 after 0.08 sec. (44.81 ticks)
Probing time = 0.02 sec. (4.57 ticks)
Tried aggregator 1 time.
MIP Presolve modified 1 coefficients.
Reduced MIP has 6819 rows, 3642 columns, and 20042 nonzeros.
Reduced MIP has 3257 binaries, 0 generals, 0 SOSs, and 0 indicators.
Presolve time = 0.02 sec. (11.18 ticks)
Probing time = 0.03 sec. (4.24 ticks)
Clique table members: 2546.
MIP emphasis: balance optimality and feasibility.
MIP search method: dynamic search.
Parallel mode: deterministic, using up to 8 threads.
Root relaxation solution time = 0.05 sec. (57.81 ticks)

        Nodes                                         Cuts/
   Node  Left     Objective  IInf  Best Integer    Best Bound    ItCnt     Gap

*     0+    0                           75.0000       20.0000            73.33%
*     0+    0                           72.0000       20.0000            72.22%
      0     0       20.0000    44       72.0000       20.0000      687   72.22%
      0     0       20.0185    56       72.0000      Cuts: 76     1132   72.20%
      0     0       35.0056    27       72.0000     Cuts: 217     1249   51.38%
*     0+    0                           49.0000       35.0056            28.56%
      0     0       42.0000    14       49.0000      Cuts: 73     1278   14.29%
*     0+    0                           47.0000       42.0000            10.64%
      0     0       42.0000    14       47.0000    MIRcuts: 6     1284   10.64%
*     0+    0                           44.0000       42.0000             4.55%
*     0+    0                           43.0000       42.0000             2.33%

Repeating presolve.
Tried aggregator 4 times.
MIP Presolve eliminated 3264 rows and 1680 columns.
MIP Presolve modified 6055 coefficients.
Aggregator did 12 substitutions.
Reduced MIP has 3543 rows, 1950 columns, and 10034 nonzeros.
Reduced MIP has 1597 binaries, 0 generals, 0 SOSs, and 0 indicators.
Presolve time = 0.05 sec. (14.11 ticks)
Probing time = 0.06 sec. (14.72 ticks)
Tried aggregator 1 time.
MIP Presolve eliminated 7 rows and 42 columns.
MIP Presolve modified 93 coefficients.
Reduced MIP has 3536 rows, 1908 columns, and 10013 nonzeros.
Reduced MIP has 1555 binaries, 0 generals, 0 SOSs, and 0 indicators.
Presolve time = 0.01 sec. (7.03 ticks)
Probing time = 0.03 sec. (4.04 ticks)
Tried aggregator 1 time.
MIP Presolve modified 2 coefficients.
Reduced MIP has 3536 rows, 1908 columns, and 10013 nonzeros.
Reduced MIP has 1555 binaries, 0 generals, 0 SOSs, and 0 indicators.
Presolve time = 0.00 sec. (5.64 ticks)
Represolve time = 0.17 sec. (56.82 ticks)
Probing time = 0.02 sec. (4.04 ticks)
Clique table members: 6965.
MIP emphasis: balance optimality and feasibility.
MIP search method: dynamic search.
Parallel mode: deterministic, using up to 8 threads.
Root relaxation solution time = 0.03 sec. (27.30 ticks)

        Nodes                                         Cuts/
   Node  Left     Objective  IInf  Best Integer    Best Bound    ItCnt     Gap

*     0+    0                           43.0000       42.0000             2.33%
      0     0       42.0000    16       43.0000       42.0000     1752    2.33%
*     0+    0                           42.0000       42.0000            -0.00%
      0     0        cutoff             42.0000       42.0000     1770   -0.00%
Elapsed time = 1.50 sec. (600.99 ticks, tree = 0.01 MB, solutions = 7)

Clique cuts applied:  36
Implied bound cuts applied:  10
Mixed integer rounding cuts applied:  25
Gomory fractional cuts applied:  1

Root node processing (before b&c):
  Real time             =    1.52 sec. (601.32 ticks)
Parallel b&c, 8 threads:
  Real time             =    0.00 sec. (0.00 ticks)
  Sync time (average)   =    0.00 sec.
  Wait time (average)   =    0.00 sec.
                          ------------
Total (root+branch&cut) =    1.52 sec. (601.32 ticks)
